3	25
537	694	926	520	78	194	433	793	785	555	436	177	275	236	652	470	469	430	66	856	234	268	459	789	215	
701	134	923	449	248	983	590	722	293	508	148	1	408	464	852	256	175	792	661	777	256	924	813	518	775	
2229	2229	2229	
